c "random instance"
p edges 150 1152
e 1 2
e 1 4
e 1 23
e 1 44
e 1 47
e 1 49
e 1 54
e 1 58
e 1 65
e 1 69
e 1 79
e 1 81
e 1 104
e 1 109
e 1 114
e 1 115
e 1 128
e 1 137
e 1 147
e 1 148
e 1 150
e 2 29
e 2 36
e 2 42
e 2 43
e 2 52
e 2 78
e 2 85
e 2 89
e 2 98
e 2 105
e 2 113
e 3 8
e 3 33
e 3 48
e 3 76
e 3 81
e 3 85
e 3 89
e 3 90
e 3 98
e 3 103
e 3 123
e 3 126
e 3 129
e 3 131
e 3 142
e 3 143
e 4 9
e 4 35
e 4 62
e 4 63
e 4 78
e 4 82
e 4 115
e 4 142
e 5 19
e 5 20
e 5 32
e 5 53
e 5 57
e 5 60
e 5 68
e 5 80
e 5 83
e 5 104
e 5 107
e 5 111
e 5 114
e 5 137
e 5 142
e 5 143
e 6 43
e 6 57
e 6 60
e 6 66
e 6 72
e 6 79
e 6 96
e 6 103
e 6 105
e 6 111
e 6 124
e 6 131
e 7 10
e 7 11
e 7 21
e 7 30
e 7 33
e 7 36
e 7 38
e 7 43
e 7 45
e 7 46
e 7 49
e 7 72
e 7 74
e 7 78
e 7 87
e 7 90
e 7 93
e 7 117
e 7 121
e 7 124
e 7 130
e 7 133
e 7 148
e 8 12
e 8 32
e 8 37
e 8 52
e 8 54
e 8 60
e 8 83
e 8 87
e 8 95
e 8 100
e 8 114
e 8 115
e 8 150
e 9 18
e 9 23
e 9 27
e 9 28
e 9 46
e 9 51
e 9 53
e 9 56
e 9 57
e 9 60
e 9 74
e 9 80
e 9 83
e 9 84
e 9 93
e 9 107
e 9 120
e 9 127
e 9 133
e 9 134
e 10 11
e 10 30
e 10 31
e 10 32
e 10 41
e 10 43
e 10 68
e 10 83
e 10 87
e 10 98
e 10 105
e 10 110
e 10 113
e 10 116
e 10 134
e 10 144
e 10 149
e 11 31
e 11 34
e 11 40
e 11 58
e 11 63
e 11 80
e 11 86
e 11 94
e 11 98
e 11 122
e 11 126
e 12 32
e 12 34
e 12 35
e 12 65
e 12 79
e 12 80
e 12 91
e 12 105
e 12 110
e 12 133
e 13 37
e 13 41
e 13 50
e 13 60
e 13 62
e 13 69
e 13 77
e 13 91
e 13 109
e 13 124
e 13 129
e 13 147
e 13 149
e 14 36
e 14 60
e 14 61
e 14 66
e 14 96
e 14 99
e 14 112
e 14 127
e 14 140
e 15 20
e 15 23
e 15 31
e 15 42
e 15 52
e 15 58
e 15 72
e 15 79
e 15 96
e 15 98
e 15 100
e 15 107
e 15 111
e 15 122
e 15 128
e 15 131
e 15 134
e 15 139
e 15 140
e 16 21
e 16 24
e 16 53
e 16 54
e 16 56
e 16 58
e 16 62
e 16 71
e 16 72
e 16 77
e 16 79
e 16 84
e 16 104
e 16 112
e 16 115
e 16 120
e 16 123
e 16 144
e 17 25
e 17 41
e 17 52
e 17 63
e 17 64
e 17 72
e 17 79
e 17 83
e 17 95
e 17 103
e 17 109
e 17 122
e 17 128
e 17 129
e 17 136
e 18 42
e 18 49
e 18 54
e 18 67
e 18 75
e 18 89
e 18 90
e 18 126
e 18 128
e 18 134
e 18 136
e 18 137
e 18 138
e 18 139
e 19 22
e 19 28
e 19 39
e 19 41
e 19 42
e 19 55
e 19 57
e 19 58
e 19 62
e 19 79
e 19 86
e 19 91
e 19 92
e 19 95
e 19 96
e 19 115
e 19 126
e 19 128
e 19 143
e 19 146
e 19 149
e 20 23
e 20 31
e 20 52
e 20 54
e 20 58
e 20 59
e 20 61
e 20 74
e 20 108
e 20 117
e 20 126
e 20 143
e 20 144
e 21 32
e 21 49
e 21 75
e 21 82
e 21 83
e 21 90
e 21 98
e 21 105
e 21 121
e 21 141
e 22 32
e 22 71
e 22 98
e 22 99
e 22 116
e 22 118
e 22 120
e 22 124
e 22 128
e 22 129
e 22 134
e 22 139
e 22 146
e 23 25
e 23 32
e 23 37
e 23 39
e 23 47
e 23 48
e 23 67
e 23 78
e 23 80
e 23 101
e 23 107
e 23 123
e 23 128
e 24 26
e 24 31
e 24 39
e 24 41
e 24 62
e 24 65
e 24 70
e 24 76
e 24 82
e 24 84
e 24 91
e 24 92
e 24 94
e 24 99
e 24 114
e 24 118
e 24 120
e 24 124
e 24 127
e 24 141
e 25 31
e 25 53
e 25 60
e 25 67
e 25 91
e 25 92
e 25 113
e 25 124
e 25 140
e 26 41
e 26 45
e 26 46
e 26 71
e 26 77
e 26 103
e 26 104
e 26 119
e 26 126
e 26 127
e 26 134
e 26 142
e 26 144
e 26 145
e 26 146
e 27 36
e 27 37
e 27 48
e 27 53
e 27 57
e 27 60
e 27 65
e 27 83
e 27 85
e 27 87
e 27 89
e 27 93
e 27 103
e 27 108
e 27 111
e 27 118
e 27 121
e 27 125
e 27 131
e 28 42
e 28 74
e 28 77
e 28 79
e 28 86
e 28 87
e 28 132
e 28 148
e 29 33
e 29 38
e 29 51
e 29 53
e 29 58
e 29 62
e 29 65
e 29 84
e 29 88
e 29 95
e 29 98
e 29 107
e 29 113
e 29 116
e 29 125
e 29 129
e 29 149
e 30 32
e 30 36
e 30 60
e 30 69
e 30 71
e 30 82
e 30 108
e 30 109
e 30 114
e 30 119
e 30 124
e 30 127
e 31 35
e 31 52
e 31 59
e 31 62
e 31 84
e 31 87
e 31 90
e 31 115
e 31 137
e 31 144
e 31 147
e 31 149
e 32 70
e 32 74
e 32 88
e 32 101
e 32 114
e 32 129
e 32 139
e 33 36
e 33 41
e 33 46
e 33 55
e 33 63
e 33 67
e 33 106
e 33 125
e 33 127
e 33 129
e 33 134
e 33 137
e 33 148
e 34 52
e 34 61
e 34 108
e 34 112
e 34 114
e 34 136
e 34 145
e 35 40
e 35 47
e 35 74
e 35 87
e 35 97
e 35 128
e 35 129
e 35 130
e 35 150
e 36 51
e 36 52
e 36 55
e 36 56
e 36 64
e 36 86
e 36 99
e 36 109
e 36 116
e 36 132
e 37 40
e 37 73
e 37 76
e 37 90
e 37 98
e 37 127
e 37 137
e 37 149
e 38 45
e 38 70
e 38 79
e 38 83
e 38 84
e 38 100
e 38 107
e 38 113
e 38 124
e 38 141
e 38 144
e 39 66
e 39 71
e 39 77
e 39 82
e 39 92
e 39 105
e 39 127
e 39 130
e 39 138
e 39 139
e 39 143
e 40 48
e 40 54
e 40 85
e 40 86
e 40 97
e 40 98
e 40 109
e 40 116
e 40 128
e 40 132
e 40 138
e 40 139
e 41 42
e 41 54
e 41 59
e 41 91
e 41 140
e 41 147
e 42 47
e 42 50
e 42 52
e 42 55
e 42 56
e 42 62
e 42 73
e 42 75
e 42 77
e 42 81
e 42 90
e 42 97
e 42 112
e 42 113
e 42 128
e 42 129
e 42 145
e 43 51
e 43 61
e 43 66
e 43 78
e 43 83
e 43 88
e 43 89
e 43 104
e 43 110
e 43 129
e 43 138
e 44 48
e 44 75
e 44 78
e 44 85
e 44 88
e 44 101
e 44 112
e 44 119
e 44 125
e 44 131
e 44 141
e 45 54
e 45 70
e 45 76
e 45 78
e 45 93
e 45 94
e 45 97
e 45 107
e 45 116
e 45 118
e 45 139
e 45 148
e 45 150
e 46 47
e 46 48
e 46 53
e 46 57
e 46 59
e 46 97
e 46 103
e 46 119
e 46 140
e 46 143
e 46 147
e 47 48
e 47 71
e 47 79
e 47 104
e 47 122
e 47 123
e 47 139
e 48 50
e 48 70
e 48 129
e 48 139
e 48 140
e 48 150
e 49 80
e 49 81
e 49 102
e 49 113
e 49 121
e 49 139
e 50 53
e 50 59
e 50 63
e 50 69
e 50 71
e 50 82
e 50 100
e 50 106
e 50 115
e 50 120
e 50 136
e 50 148
e 51 55
e 51 63
e 51 66
e 51 74
e 51 75
e 51 88
e 51 93
e 51 97
e 51 98
e 51 145
e 52 53
e 52 60
e 52 63
e 52 77
e 52 81
e 52 87
e 52 108
e 52 110
e 52 120
e 52 128
e 52 143
e 52 144
e 52 148
e 53 95
e 53 105
e 53 106
e 53 107
e 53 122
e 53 125
e 53 126
e 53 136
e 53 143
e 53 144
e 53 149
e 54 71
e 54 77
e 54 79
e 54 92
e 54 93
e 54 116
e 54 141
e 54 148
e 55 56
e 55 77
e 55 114
e 55 118
e 55 121
e 55 135
e 55 137
e 55 142
e 55 145
e 56 59
e 56 65
e 56 80
e 56 82
e 56 93
e 56 94
e 56 101
e 56 112
e 56 122
e 56 125
e 56 126
e 56 129
e 56 145
e 57 83
e 57 94
e 57 109
e 57 125
e 58 82
e 58 85
e 58 87
e 58 88
e 58 98
e 58 102
e 58 105
e 58 108
e 58 128
e 58 139
e 59 70
e 59 73
e 59 93
e 59 103
e 59 128
e 60 64
e 60 67
e 60 72
e 60 75
e 60 79
e 60 86
e 60 97
e 60 104
e 60 110
e 60 120
e 60 128
e 60 138
e 60 140
e 60 143
e 61 65
e 61 100
e 61 107
e 61 126
e 61 127
e 62 74
e 62 79
e 62 81
e 62 84
e 62 104
e 62 105
e 62 121
e 62 122
e 62 123
e 62 147
e 63 71
e 63 75
e 63 89
e 63 90
e 63 95
e 63 97
e 63 107
e 63 129
e 63 135
e 63 138
e 63 141
e 63 143
e 63 149
e 64 71
e 64 92
e 64 105
e 64 125
e 64 126
e 64 138
e 65 91
e 65 100
e 65 117
e 65 124
e 65 126
e 65 127
e 65 129
e 65 137
e 65 143
e 66 79
e 66 81
e 66 96
e 66 106
e 66 108
e 66 109
e 66 115
e 66 121
e 66 131
e 66 132
e 67 68
e 67 81
e 67 99
e 67 122
e 67 130
e 67 138
e 68 71
e 68 76
e 68 90
e 68 111
e 68 119
e 68 136
e 69 71
e 69 75
e 69 76
e 69 80
e 69 89
e 69 94
e 69 111
e 69 114
e 69 120
e 69 121
e 69 126
e 69 130
e 69 131
e 69 133
e 70 76
e 70 86
e 70 90
e 70 92
e 70 94
e 70 99
e 70 130
e 70 138
e 70 141
e 70 143
e 70 148
e 71 74
e 71 78
e 71 94
e 71 107
e 71 115
e 71 123
e 71 132
e 71 141
e 71 150
e 72 90
e 72 92
e 72 116
e 72 123
e 72 129
e 73 79
e 73 82
e 73 96
e 73 98
e 73 100
e 73 103
e 73 107
e 73 109
e 73 118
e 73 146
e 74 99
e 74 104
e 74 111
e 74 115
e 74 131
e 74 142
e 75 96
e 75 103
e 75 104
e 75 115
e 75 119
e 75 137
e 75 139
e 76 81
e 76 82
e 76 104
e 76 121
e 76 127
e 76 130
e 76 131
e 76 133
e 76 146
e 76 147
e 76 148
e 77 88
e 77 91
e 77 94
e 77 126
e 77 141
e 78 102
e 78 128
e 78 141
e 78 148
e 79 82
e 79 108
e 79 116
e 79 118
e 79 132
e 79 133
e 79 143
e 79 144
e 79 150
e 80 91
e 80 92
e 80 94
e 80 107
e 80 120
e 80 132
e 80 135
e 80 140
e 81 87
e 81 94
e 81 96
e 81 99
e 81 111
e 81 114
e 81 120
e 81 136
e 82 85
e 82 94
e 82 102
e 83 84
e 83 97
e 83 112
e 83 140
e 83 150
e 84 112
e 84 125
e 84 129
e 84 133
e 84 138
e 85 90
e 85 101
e 85 103
e 85 104
e 85 105
e 85 113
e 85 114
e 85 125
e 85 131
e 86 109
e 86 111
e 86 116
e 86 125
e 86 127
e 86 144
e 87 88
e 87 92
e 87 96
e 87 97
e 87 101
e 87 104
e 87 105
e 87 107
e 87 129
e 87 134
e 88 90
e 88 100
e 88 103
e 88 104
e 88 110
e 88 113
e 88 116
e 88 129
e 88 140
e 88 143
e 88 146
e 89 113
e 89 142
e 89 144
e 89 150
e 90 100
e 90 105
e 90 111
e 90 115
e 90 132
e 90 136
e 90 140
e 91 103
e 91 114
e 91 118
e 91 119
e 91 122
e 91 134
e 91 143
e 91 145
e 92 100
e 92 105
e 92 132
e 92 136
e 92 142
e 92 147
e 93 105
e 93 107
e 93 132
e 94 95
e 94 103
e 94 108
e 94 117
e 94 118
e 95 100
e 95 125
e 95 127
e 95 131
e 95 137
e 96 101
e 96 104
e 96 106
e 96 136
e 96 146
e 97 100
e 97 102
e 97 119
e 97 126
e 97 129
e 97 139
e 98 103
e 98 125
e 98 127
e 98 134
e 98 146
e 99 103
e 99 114
e 99 117
e 99 121
e 99 131
e 100 103
e 100 108
e 100 116
e 100 126
e 100 149
e 101 103
e 101 115
e 101 120
e 101 133
e 101 137
e 101 145
e 102 106
e 102 109
e 102 112
e 102 120
e 102 121
e 102 122
e 102 128
e 102 135
e 102 146
e 103 111
e 103 138
e 103 147
e 103 149
e 104 107
e 104 111
e 104 138
e 105 127
e 105 130
e 105 132
e 105 133
e 105 143
e 105 149
e 106 113
e 106 120
e 106 122
e 106 127
e 106 135
e 106 140
e 106 145
e 106 146
e 106 148
e 107 137
e 107 138
e 107 140
e 108 111
e 108 112
e 108 119
e 108 139
e 108 142
e 109 133
e 109 140
e 109 147
e 110 111
e 110 119
e 110 121
e 110 126
e 111 120
e 111 133
e 111 145
e 112 122
e 112 126
e 113 131
e 113 135
e 113 138
e 113 144
e 114 118
e 114 125
e 114 138
e 114 146
e 115 117
e 115 118
e 115 122
e 115 129
e 115 140
e 115 148
e 116 122
e 116 133
e 116 147
e 117 119
e 117 127
e 117 129
e 117 141
e 119 129
e 119 134
e 119 137
e 120 127
e 120 142
e 120 144
e 120 146
e 121 130
e 121 136
e 121 137
e 122 125
e 122 145
e 122 148
e 123 145
e 123 146
e 124 127
e 124 132
e 124 145
e 124 149
e 124 150
e 125 126
e 126 135
e 126 143
e 126 150
e 127 141
e 127 145
e 128 145
e 128 146
e 129 136
e 129 145
e 130 136
e 130 141
e 130 142
e 130 149
e 131 136
e 131 141
e 132 145
e 133 148
e 134 145
e 134 147
e 135 138
e 135 143
e 135 149
e 136 141
e 136 150
e 137 148
e 138 140
e 139 143
e 139 145
e 140 143
e 140 146
e 141 148
e 142 144
e 142 145
e 144 149
e 147 148
